75 56 50 27 93 72 
65 22 
74 21 58 90 80 
47 
92 53 4 6 
48 88 69 31 23 13 66 30 24 18 100 
15 8 34 43 89 25 
17 33 28 55 41 42 10 64 39 
60 19 36 84 
98 2 49 81 44 40 38 87 79 1 26 5 54 12 77 52 94 
29 95 62 
97 63 51 57 99 32 
68 76 73 
70 91 16 96 67 
71 
86 46 37 11 85 59 9 35 3 61 7 83 82 20 45 78 14 

